c Random generated cnf formula, satisfiable: false
p cnf 10 50
8 -10 -2 0
3 -8 -10 0
8 -10 4 0
-4 2 -8 0
-9 -7 3 0
8 -7 -6 0
4 -3 1 0
1 -7 2 0
3 -2 7 0
-7 -10 -3 0
-8 3 10 0
10 3 7 0
-8 -2 10 0
-8 2 10 0
-3 7 -4 0
-7 3 -9 0
4 5 -8 0
-7 -5 10 0
-4 7 3 0
5 -10 9 0
-7 -1 5 0
7 4 3 0
8 1 -6 0
5 8 2 0
4 -2 9 0
5 -2 10 0
-9 -10 1 0
7 -1 -6 0
1 3 -2 0
-3 4 -2 0
-3 4 -1 0
7 -1 -3 0
-10 7 5 0
4 -6 8 0
3 9 -2 0
9 2 3 0
3 -8 7 0
3 -10 1 0
6 3 -1 0
-8 6 9 0
9 8 -4 0
2 -7 5 0
4 -3 -7 0
-4 7 -9 0
-9 3 -8 0
6 -9 -7 0
-4 7 -1 0
4 1 8 0
-5 -6 3 0
-10 3 8 0
